
Value of objective function: 4.00000000

Actual values of the variables:
t1                              1
t2                              1
t3                              0
t4                              0
t5                              1
t6                              0
t7                              1
